results/x-long/X-n190-k8.vrp_seed-10.out
16980	1152
