results/x-long/X-n190-k8.vrp_seed-10.vrp.sol
Route #1: 105 19 57 63 66 13 120 171 110 4 163 128 34 103 108 129 156 133 72 139 149 45 99 31 118 131
Route #2: 10 43 58 28 138 85 104 89 109 35 6 2 38 77 22 36 39 30 150 80 169 112 73
Route #3: 102 159 142 81 145 115 50 94 21 178 69 164 23 111 74 161 134 132 173 157 166 170
Route #4: 92 144 68 130 56 8 100 42 90 76 40 32 61 180 153 84 18 185 70 141 98 148 167 136 183 25 64 188
Route #5: 14 16 67 51 93 75 121 158 113 107 33 162 7 155 17 79 60 116 82 122 11 175 117 26 49 119 106
Route #6: 37 29 83 182 160 184 1 165 88 44 127 172
Route #7: 135 55 91 9 114 65 20 53 154 189 140 124 187 27 15 3 96 59 62 179 46
Route #8: 95 143 97 24 12 176 5 47 101 71 52 123 177 146 186 87 152 41 181 126 54 48 174 151 137 125 86 147 78 168
Cost 16980.000000